10
1 1
2 5
3 3
4 7
5 1
6 1
7 7
8 3
9 9
25
0 1 57
1 0 57
0 2 44
2 0 44
0 3 78
3 0 78
0 4 57
4 0 57
0 5 17
5 0 17
0 6 44
6 0 44
0 7 26
7 0 26
0 8 91
8 0 91
0 9 23
9 0 23
1 4 85
2 4 60
2 6 9
3 5 65
3 8 45
4 5 59
6 8 36
